[[93, 92, 91, 83, 82, 73, 84, 85, 76, 75, 74, 77, 68, 67, 66, 59, 58, 65, 64, 56, 57, 49, 55, 46, 47, 38, 48, 39, 40, 31, 30], [29, 37, 28, 19, 21, 22, 20, 10, 2, 11, 12, 3, 4, 13, 14, 5, 6, 7, 8, 9, 18, 17, 16, 15, 23, 24, 25, 26, 27, 35, 36, 44, 34, 43, 33], [32, 41, 42, 50, 60, 51, 52, 53, 45, 54, 63, 62, 61, 72, 71, 70, 69, 78, 80, 81, 79, 88, 89, 90, 99, 98, 97, 96, 87, 86, 95, 94]]